fuel_planner/utils/lkh_tsp_solver/resource/single.txt
NAME : single.2738.tour
COMMENT : Length = 2738
COMMENT : Found by LKH [Keld Helsgaun] Fri Jun 17 17:03:03 2022
TYPE : TOUR
DIMENSION : 17
TOUR_SECTION
1
16
17
15
14
12
13
9
10
4
11
5
3
8
6
7
2
-1
EOF
